single_objective/SL-DABL/OP/problems/op/OPLib-master/solutions/ea4op/gen1/gr666-gen1-50.sol
NAME : gr666
TYPE : OP
DIMENSION : 666
COST_LIMIT : 147179
ROUTE_NODES : 497
ROUTE_SCORE : 497
ROUTE_COST : 147093
NODE_SEQUENCE_SECTION
1
311
312
313
314
315
316
440
441
325
324
323
321
320
319
318
301
300
299
297
298
306
307
304
303
305
292
293
296
295
294
291
290
287
286
289
288
285
264
265
266
267
260
254
255
253
245
252
251
243
244
246
249
247
248
250
237
236
143
144
145
146
239
238
242
240
241
147
148
150
380
151
152
153
389
388
387
386
385
384
383
382
381
379
378
377
374
373
372
371
376
259
258
257
256
263
261
262
361
362
363
365
364
271
270
269
268
277
278
276
279
280
281
283
282
284
333
345
344
343
342
341
340
339
338
337
275
274
352
272
273
357
358
354
353
355
356
347
346
334
329
330
331
327
326
328
322
332
390
336
335
348
349
350
351
402
401
359
360
366
367
368
370
418
375
419
420
409
410
411
423
422
421
424
426
431
433
434
432
425
427
428
416
415
414
412
408
407
405
369
404
403
398
399
406
445
400
395
394
397
393
392
391
442
396
443
444
446
413
447
417
429
430
487
488
435
155
158
157
156
501
502
499
500
498
497
496
495
494
490
491
492
493
519
518
517
523
516
524
515
526
525
522
521
520
460
459
458
457
456
454
453
452
448
449
450
462
463
466
467
468
475
477
482
484
483
485
624
625
626
627
629
628
630
631
632
634
633
623
622
621
619
618
616
617
615
613
610
611
612
609
601
600
598
597
596
595
592
590
587
584
583
582
581
580
577
576
578
575
573
572
571
570
568
567
566
564
563
562
561
560
546
545
544
549
552
556
557
558
555
554
551
548
542
543
541
540
533
534
535
532
531
473
472
528
529
530
536
537
538
539
510
511
512
513
514
503
505
504
160
164
507
506
508
166
203
204
206
205
202
201
200
199
209
210
211
213
212
222
223
224
225
227
228
229
221
219
220
208
207
195
194
193
189
190
188
187
181
180
179
178
182
172
173
176
175
174
170
169
168
139
132
131
130
125
124
123
122
121
120
119
112
113
114
115
117
104
102
101
100
99
98
96
95
94
92
91
90
89
88
83
87
82
81
80
79
78
77
75
76
72
71
70
69
68
67
64
63
62
59
60
61
56
57
55
54
53
29
28
26
24
23
22
21
19
6
20
8
7
10
9
11
30
31
37
38
42
13
43
49
48
47
46
14
15
16
310
-1
DEPOT_SECTION
1
-1
EOF
